50, 13089
966, 966
12, 12
736, 735
159, 159
987, 987
17, 15
880, 879
682, 681
858, 858
1000, 999
240, 240
339, 339
709, 708
281, 279
264, 264
229, 228
858, 858
875, 873
798, 798
224, 222
925, 924
512, 510
232, 231
456, 456
420, 420
79, 78
565, 564
360, 360
570, 570
931, 930
646, 645
406, 405
864, 864
996, 996
491, 489
946, 945
19, 18
141, 141
173, 171
939, 939
691, 690
720, 720
287, 285
495, 495
888, 888
100, 99
117, 117
48, 48
469, 468
841, 840
